(set-logic QF_S)
(declare-fun var_0xINPUT_468893 () String)
(assert (and (not (= var_0xINPUT_468893 "Search")) (not (= var_0xINPUT_468893 "Search")) (not (= var_0xINPUT_468893 "Search")) (not (= var_0xINPUT_468893 "Search")) (not (= var_0xINPUT_468893 "Search")) (not (= var_0xINPUT_468893 "Search")) (not (= var_0xINPUT_468893 "Search"))))
(check-sat var_0xINPUT_468893)